
Gurobi 10.0.3 (linux64, gurobi_cl) logging started Thu Nov  9 11:50:43 2023

Set parameter Username
Set parameter TimeLimit to value 3600
Set parameter LogFile to value "RCPSP_1266.log"
Set parameter Threads to value 32
Academic license - for non-commercial use only - expires 2024-10-30
Using license file /home/jrivera6/gurobi-licenses/v1003/compute-0-34/gurobi.lic

Gurobi Optimizer version 10.0.3 build v10.0.3rc0 (linux64)
Copyright (c) 2023, Gurobi Optimization, LLC

Read MPS format model from file RCPSP_1266.mps
Reading time = 0.08 seconds
RCPSP_1266: 42947 rows, 17020 columns, 159151 nonzeros

CPU model: Intel(R) Xeon(R) Gold 6130 CPU @ 2.10GHz, instruction set [SSE2|AVX|AVX2|AVX512]
Thread count: 32 physical cores, 32 logical processors, using up to 32 threads

Optimize a model with 42947 rows, 17020 columns and 159151 nonzeros
Model fingerprint: 0xdae9dd86
Variable types: 92 continuous, 16928 integer (16928 binary)
Coefficient statistics:
  Matrix range     [1e+00, 5e+02]
  Objective range  [1e+00, 1e+00]
  Bounds range     [1e+00, 1e+00]
  RHS range        [1e+00, 5e+02]
Presolve removed 7804 rows and 1973 columns (presolve time = 5s) ...
Presolve removed 7804 rows and 1973 columns
Presolve time: 5.39s
Presolved: 35143 rows, 15047 columns, 136898 nonzeros
Variable types: 91 continuous, 14956 integer (14956 binary)

Deterministic concurrent LP optimizer: primal and dual simplex (primal and dual model)
Showing first log only...

Root relaxation presolved: 35143 rows, 15047 columns, 136898 nonzeros


Root simplex log...

Iteration    Objective       Primal Inf.    Dual Inf.      Time
       0    8.1934100e+01   5.352101e-03   1.285899e+08      7s
    2380    8.0000000e+01   0.000000e+00   0.000000e+00      8s
Concurrent spin time: 1.21s

Solved with dual simplex (dual model)

Root relaxation: objective 8.000000e+01, 17325 iterations, 3.37 seconds (0.16 work units)
Total elapsed time = 12.77s
Total elapsed time = 15.42s

    Nodes    |    Current Node    |     Objective Bounds      |     Work
 Expl Unexpl |  Obj  Depth IntInf | Incumbent    BestBd   Gap | It/Node Time

     0     0   80.00000    0   70          -   80.00000      -     -   16s
     0     0   80.00000    0 1496          -   80.00000      -     -   52s
     0     0   80.00000    0 1492          -   80.00000      -     -   53s
     0     0   80.00000    0 1480          -   80.00000      -     -   53s
     0     0   80.00000    0 1395          -   80.00000      -     -   54s
H    0     0                      80.0000000   80.00000  0.00%     -   62s
     0     0   80.00000    0   12   80.00000   80.00000  0.00%     -   62s

Cutting planes:
  Gomory: 66
  Cover: 14
  Implied bound: 78
  MIR: 942
  StrongCG: 7
  Zero half: 9
  RLT: 628
  Relax-and-lift: 328
  PSD: 1

Explored 1 nodes (27991 simplex iterations) in 63.74 seconds (5.74 work units)
Thread count was 32 (of 32 available processors)

Solution count 1: 80 

Optimal solution found (tolerance 1.00e-04)
Best objective 8.000000000000e+01, best bound 8.000000000000e+01, gap 0.0000%

Wrote result file 'RCPSP_1266.sol'

